%chk=D:\! BYU CALCULATION\Acidic MOF Patent\Periodic_51_56_HPO4 (28.187)\UiO67_based_cell-pos-final-cluster.chk
# hf/3-21g

PDB file created by CP2K version 7.1 (revision git:e635599)

0 1
 N               -1   10.56400000   14.10200000    8.96400000
 N               -1   19.43300000   14.12300000   20.74900000
 N               -1   10.55900000   15.14900000   20.75500000
 N               -1   19.44500000   15.14400000    8.95300000
 N               -1    9.05600000   10.23000000   14.43800000
 N               -1   20.94400000   18.96300000   14.22400000
 N               -1   20.93100000   10.18000000   15.48700000
 N               -1    9.05600000   18.89600000   15.26000000
 N               -1    9.63500000   14.07700000    8.02400000
 N               -1   20.36300000   14.11900000   21.68600000
 N               -1    9.62700000   15.19700000   21.69000000
 N               -1   20.37700000   15.15400000    8.01400000
 N               -1    8.11500000    9.31200000   14.34400000
 N               -1   21.88500000   19.89200000   14.21100000
 N               -1   21.87600000    9.25000000   15.49500000
 N               -1    8.11300000   19.80600000   15.37000000
 C                0   11.27600000   14.60100000   11.25900000
 C                0   18.73500000   14.47100000   18.43300000
 C                0   11.28200000   14.56500000   18.49800000
 C                0   18.73400000   14.71700000   11.24400000
 C                0   11.38700000   10.88200000   14.77400000
 C                0   18.65400000   18.27200000   14.76300000
 C                0   18.64500000   10.88200000   14.92600000
 C                0   11.38500000   18.28500000   14.90600000
 C               -1   10.19600000   14.48900000   10.21400000
 C               -1   19.80600000   14.45500000   19.48700000
 C               -1   10.19900000   14.70200000   19.52600000
 C               -1   19.81200000   14.78400000   10.20400000
 C               -1   10.31800000    9.82800000   14.72100000
 C               -1   19.71200000   19.32500000   14.66800000
 C               -1   19.70300000    9.82200000   15.02400000
 C               -1   10.30600000   19.32100000   14.93300000
 C               -1    8.38600000   14.45300000    8.38000000
 C               -1   21.60600000   14.47400000   21.30700000
 C               -1    8.38200000   14.80400000   21.33500000
 C               -1   21.62000000   14.77700000    8.37500000
 C               -1    8.46700000    8.04400000   14.67700000
 C               -1   21.53600000   21.12100000   14.65600000
 C               -1   21.53400000    8.02000000   15.03800000
 C               -1    8.44800000   21.07900000   15.02700000
 N               -1   10.67200000    8.55200000   15.01200000
 N               -1   19.34200000    8.55500000   14.68700000
 N               -1   10.65000000   20.60300000   14.68100000
 N               -1   19.33300000   20.60300000   14.91200000
 N               -1    8.93200000   14.81200000   10.57400000
 N               -1    8.92800000   14.44400000   19.14400000
 N               -1   21.07900000   14.47600000   10.57800000
 N               -1   21.06600000   14.79200000   19.12000000
 N               -1    9.71300000    7.63800000   15.03400000
 N               -1   20.28500000    7.62500000   14.68700000
 N               -1    9.67500000   21.50800000   14.67400000
 N               -1   20.27600000   21.53100000   14.92000000
 N               -1    7.99900000   14.80500000    9.63100000
 N               -1    7.99100000   14.47000000   20.08100000
 N               -1   22.00900000   14.45400000    9.63700000
 N               -1   21.99600000   14.81700000   20.05800000
 H                0   12.87200000   16.57200000   12.91800000
 H                0   16.93000000   12.56700000   12.72100000
 H                0   16.99800000   16.66300000   16.90000000
 H                0   12.88800000   12.66400000   16.80900000
 S                0   12.82500000   14.46900000   10.65900000
 S                0   17.16400000   14.58200000   19.05400000
 S                0   12.83500000   14.75400000   19.07800000
 S                0   17.16600000   14.64000000   10.62500000
 O                0   14.87500000   11.09700000   12.94600000
 O                0   14.88600000   18.18800000   16.68500000
 O                0   15.12100000   18.47700000   12.81000000
 O                0   15.11800000   10.68600000   16.89600000
 S                0   10.87100000   12.45200000   14.47500000
 S                0   19.22000000   16.70400000   14.81400000
 S                0   19.20700000   12.45000000   14.85200000
 S                0   10.86600000   16.72400000   15.23600000
 O                0   14.88600000   12.87700000   11.18100000
 O                0   15.00600000   16.47300000   11.05000000
 O                0   15.00400000   12.69900000   18.65400000
 O                0   14.88400000   16.42600000   18.43200000
 S                0   12.96000000   10.28500000   15.02100000
 S                0   17.04800000   10.28700000   14.84300000
 S                0   12.93900000   18.91800000   14.65600000
 S                0   17.07100000   18.90100000   14.82300000
 S                0   10.72400000   14.89800000   12.84900000
 S                0   10.72200000   14.24900000   16.91100000
 S                0   19.28100000   14.65500000   12.83100000
 S                0   19.28300000   14.50300000   16.84600000
 O                0   16.42500000   13.22900000   13.41200000
 O                0   16.50400000   16.04200000   16.21100000
 O                0   13.59600000   16.12600000   13.40500000
 O                0   13.59500000   13.13300000   16.31700000
 O                0   13.94700000   15.69600000   15.94000000
 O                0   13.94800000   13.58400000   13.84600000
 O                0   16.06100000   13.47900000   15.95700000
 O                0   16.06200000   15.79100000   13.73400000
 Zr               0   15.00400000   14.66200000   17.36900000
 Zr               0   15.00100000   14.60100000   12.34400000
 Zr               0   15.00200000   17.20100000   14.91500000
 Zr               0   15.00200000   12.06400000   14.79100000
 Zr               0   17.34200000   14.63100000   14.80000000
 Zr               0   12.55100000   14.63200000   14.91000000
 H                0   15.97800000   10.20700000   16.69400000
 H                0   15.99400000   18.94900000   12.96900000
 H                0   15.04700000   11.89000000   18.06300000
 H                0   15.04100000   17.28900000   11.63400000
 H                0   15.83200000   12.68900000   19.19100000
 H                0   15.82000000   16.49300000   10.48800000
 P                0   15.50300000   11.49900000   11.57400000
 P                0   15.52100000   17.80700000   18.06900000
 O                0   17.01000000   11.55800000   11.65100000
 O                0   14.99900000   10.48300000   10.46600000
 O                0   14.99300000   18.88900000   19.11200000
 O                0   17.02200000   17.72000000   18.05100000
 H                0   14.38500000   10.02100000   16.86900000
 H                0   14.40300000   19.15900000   12.80400000
 H                0   15.75200000   19.25000000   19.60900000
 H                0   15.71300000    9.85800000   10.23500000
 H                0    7.70224567    7.29574599   14.66408670
 H                0    7.64493614   14.82779952   22.11028733
 H                0    7.66588300   21.80912030   15.03783265
 H                0    7.65245898   14.44435315    7.60106303
 H                0   22.35686203   14.76834800    7.59920397
 H                0   22.30308705    7.27609354   15.04087778
 H                0   22.35595086   14.48497489   22.07012073
 H                0   22.31243026   21.85694600   14.67696506

