%chk=D:\.chk
# hf/3-21g

PDB file created by CP2K version 7.1 (revision git:e635599)

0 1
 H                0   16.26700000   13.14700000   11.89400000
 C                0    9.04900000   11.98700000    8.03400000
 C               -1    7.73400000   11.90100000    7.30400000
 C               -1    9.45300000    6.06500000    5.36800000
 C               -1    5.49000000    8.53700000   12.16400000
 N               -1    7.77900000   11.50100000    6.02300000
 N               -1   10.24900000    6.97100000    5.95600000
 N               -1    5.39100000    7.19900000   12.16200000
 C                0    9.06600000    9.17900000   12.01200000
 C               -1    5.47300000   11.95800000    7.30300000
 C               -1    9.42700000    4.74900000    7.20200000
 C               -1    7.74500000    8.47100000   12.15000000
 C                0   11.39000000    7.72900000    7.96300000
 C               -1    6.58800000   11.33200000    5.44300000
 C               -1   10.59300000    6.68700000    7.21700000
 C               -1    6.55900000    6.55100000   12.12400000
 N               -1    6.61200000   12.15100000    7.99000000
 N               -1    9.02900000    4.92800000    5.93200000
 N               -1    6.63500000    9.22700000   12.18100000
 N               -1    5.40000000   11.56400000    6.02600000
 N               -1   10.21500000    5.58600000    7.88800000
 N               -1    7.76700000    7.13300000   12.12700000
 C                0   17.55900000   11.37300000   13.68100000
 C               -1   18.92900000   11.50400000   14.29300000
 C               -1   17.17100000   17.00500000   16.05200000
 C               -1   21.30100000   14.92800000    9.52100000
 N               -1   18.99000000   11.91900000   15.56500000
 N               -1   16.42200000   16.15700000   15.33300000
 N               -1   21.21100000   16.26000000    9.54700000
 C                0   17.83700000   13.79300000    9.44300000
 C               -1   21.18100000   11.41200000   14.11000000
 C               -1   17.33600000   18.46800000   14.33900000
 C               -1   19.06000000   14.67000000    9.44800000
 C                0   15.38000000   15.59400000   13.21700000
 C               -1   20.22900000   12.05200000   16.05600000
 C               -1   16.17100000   16.55000000   14.07400000
 C               -1   19.95700000   16.74100000    9.50400000
 N               -1   19.99100000   11.23600000   13.51600000
 N               -1   17.64500000   18.17900000   15.61100000
 N               -1   20.26000000   14.07900000    9.46900000
 N               -1   21.36100000   11.80800000   15.38100000
 N               -1   16.60700000   17.69300000   13.52200000
 N               -1   18.84600000   15.99900000    9.46500000
 S                0    9.02400000   12.92300000    9.44900000
 S                0   16.37800000   12.32500000   14.41100000
 O                0   11.84400000   10.73600000   10.05600000
 S                0   10.42600000    8.27800000   12.43000000
 S                0   12.24600000    8.82000000    6.99300000
 S                0   15.71800000   15.67500000   11.56300000
 S                0   18.07400000   12.25700000   10.15600000
 S                0   17.47700000   10.31300000   12.36900000
 S                0   10.26100000   11.07000000    7.33900000
 O                0   15.45300000   12.69300000   11.58000000
 S                0   16.45600000   14.51000000    8.83700000
 S                0   14.35700000   14.56800000   14.07300000
 S                0   11.19600000    7.62700000    9.63000000
 S                0    8.91400000   10.71300000   11.32300000
 O                0   15.50100000    7.31000000   12.94100000
 H                0   13.78500000   10.29500000   15.26300000
 O                0   14.24500000   10.14300000   14.41200000
 S                0   14.12600000    7.07500000   12.54000000
 O                0   13.55200000    5.76900000   12.73600000
 H                0   13.90400000    9.27600000   14.00100000
 O                0   13.18300000    8.18500000   13.12200000
 O                0   12.90400000   12.31300000   14.84700000
 H                0   11.39500000   10.69300000   13.38200000
 Zr               0   13.94400000   12.02400000   13.18400000
 H                0   12.75600000   13.08100000   15.42800000
 O                0   11.96500000   10.91000000   12.61700000
 H                0    9.08400000   12.49400000   13.08100000
 O                0    9.96500000   12.91900000   12.98400000
 Zr               0   12.66200000    9.24000000   11.22200000
 O                0   13.98500000    7.52200000   11.01600000
 O                0   14.27200000   10.43600000   11.76900000
 H                0    9.82600000   13.88800000   12.84300000
 O                0   12.92000000   13.09000000   11.69800000
 O                0   16.24600000    8.57700000   10.46600000
 Zr               0   11.12700000   12.32700000   11.05700000
 H                0   15.34000000    8.07400000   10.57900000
 Zr               0   15.66200000   10.80100000   10.41400000
 H                0   10.02500000   14.91100000   10.47500000
 O                0   10.60900000   14.60300000   11.20500000
 H                0   11.50500000   15.12400000   11.01900000
 Zr               0   14.13300000   13.88400000   10.18800000
 O                0   14.03000000    9.57000000    9.36500000
 O                0   12.76400000   15.61900000   10.51500000
 O                0   16.80500000   10.20700000    8.40400000
 H                0   14.10100000    8.77900000    8.78800000
 O                0   14.50500000   12.04900000    9.28700000
 O                0   12.15900000   13.10100000    9.24700000
 H                0   17.10500000    9.27900000    8.53600000
 Zr               0   12.84600000   11.20300000    8.25600000
 O                0   14.58600000   10.58600000    6.81100000
 H                0   15.49900000   10.61800000    7.18600000
 H                0   17.61000000   10.79100000    8.48000000
 O                0   13.90300000   15.20100000    8.52000000
 H                0   11.72900000   13.87600000    8.75000000
 S                0   12.70700000   16.06000000    8.99800000
 O                0   11.46400000   15.49900000    8.42700000
 O                0   12.92600000   17.46900000    8.83600000
 H                0   14.44200000   11.35400000    6.20300000
 O                0   12.86600000   12.30800000    6.59700000
 H                0   12.24100000   12.97800000    6.26100000
 H                0   16.70700000    8.27900000   11.28800000
 H                0    9.03421136    3.90103031    7.72311850
 H                0    6.51345569    5.48924829   11.99946478
 H                0    4.57976626    9.08854898   12.05369020
 H                0    9.07496375    6.30543957    4.39631208
 H                0    4.55126229   12.06348304    7.83607872
 H                0    6.59225742   10.90554807    4.46166386
 H                0   20.30285918   12.43123848   17.05380910
 H                0   22.06187545   11.27287704   13.51872744
 H                0   22.27920960   14.49687635    9.56724264
 H                0   19.86233374   17.80652928    9.52820040
 H                0   17.73079715   19.37546538   13.93213172
 H                0   17.44929258   16.70824924   17.04164248
 
 